8554
0 1 0 0 0 1 0 0 1 1 0 0 1 0 1 0 0 1 0 0 0 0 0 0 0 0 0 0 1 0 
17 8 5 1 17 9 9 8 1 5 5 5 14 9 5 12 8 8 12 9 14 14 9 8 17 14 5 17 5 17 5 5 28 14 9 9 17 12 5 17 17 12 28 17 5 14 17 17 9 5 8 17 9 12 17 5 17 8 5 1 28 5 5 5 28 28 1 28 28 5 